test                                    
   1.00000000000000     
     7.5295418705090338    0.0000000000000000    0.0000000000000000
     3.7647709352545169    6.5207745387194223    0.0000000000000000
     0.0000000000000000    0.0000000000000000   26.2074228060000003
   Cu   C 
    36     2
Selective dynamics
Direct
  0.0000000000000000  0.0000000000000000  0.0000000000000000   F   F   F
  0.0000000000000000  0.3333333333333357  0.0000000000000000   F   F   F
  0.0000000000000000  0.6666666666666643  0.0000000000000000   F   F   F
  0.3333333333333357  0.0000000000000000  0.0000000000000000   F   F   F
  0.3333333333333357  0.3333333333333357  0.0000000000000000   F   F   F
  0.3333333333333357  0.6666666666666643  0.0000000000000000   F   F   F
  0.6666666666666643  0.0000000000000000  0.0000000000000000   F   F   F
  0.6666666666666643  0.3333333333333357  0.0000000000000000   F   F   F
  0.6666666666666643  0.6666666666666643  0.0000000000000000   F   F   F
  0.1111111111111143  0.1111111111111143  0.0781947063717041   F   F   F
  0.1111111111111143  0.4444444444444429  0.0781947063717041   F   F   F
  0.1111111111111143  0.7777777777777786  0.0781947063717041   F   F   F
  0.4444444444444429  0.1111111111111143  0.0781947063717041   F   F   F
  0.4444444444444429  0.4444444444444429  0.0781947063717041   F   F   F
  0.4444444444444429  0.7777777777777786  0.0781947063717041   F   F   F
  0.7777777777777786  0.1111111111111143  0.0781947063717041   F   F   F
  0.7777777777777786  0.4444444444444429  0.0781947063717041   F   F   F
  0.7777777777777786  0.7777777777777786  0.0781947063717041   F   F   F
  0.2216813069893483  0.2231063496017416  0.1574774057457650   T   T   T
  0.2224174972845768  0.5552420240104591  0.1566432962289999   T   T   T
  0.2212103594394486  0.8909126144544312  0.1572628084572013   T   T   T
  0.5551750050139546  0.2229833233054197  0.1569225868254170   T   T   T
  0.5556738120382925  0.5552420240104591  0.1566432962289999   T   T   T
  0.5546634980713507  0.8908356553627153  0.1566025122551362   T   T   T
  0.8885456767422384  0.2231063496017416  0.1574774057457650   T   T   T
  0.8884055216969673  0.5565222899393870  0.1562395218615846   T   T   T
  0.8878341798992548  0.8908356553627153  0.1566025122551362   T   T   T
 -0.0000854345444341  0.9935374895390910  0.2389926106576084   T   T   T
  0.9940282587197575  0.3452768158938210  0.2378337000440277   T   T   T
  0.0004035690897329  0.6659200642353512  0.2344308431977471   T   T   T
  0.3398812783386787  0.9935374895390910  0.2389926106576084   T   T   T
  0.3269100246173956  0.3377950325632517  0.2392609619372267   T   T   T
  0.3342444520411714  0.6648444292509930  0.2358008510542166   T   T   T
  0.6733730038061609 -0.0134126742789857  0.2380534622033718   T   T   T
  0.6686282761526882  0.3377950325632517  0.2392609619372267   T   T   T
  0.6670097000082515  0.6659200642353512  0.2344308431977471   T   T   T
  0.1067230329452569  0.1198872674202905  0.2797470517748829   T   T   T
  0.5603119244179380  0.2127094844974679  0.2798363271000343   T   T   T
 
  0.00000000E+00  0.00000000E+00  0.00000000E+00
  0.00000000E+00  0.00000000E+00  0.00000000E+00
  0.00000000E+00  0.00000000E+00  0.00000000E+00
  0.00000000E+00  0.00000000E+00  0.00000000E+00
  0.00000000E+00  0.00000000E+00  0.00000000E+00
  0.00000000E+00  0.00000000E+00  0.00000000E+00
  0.00000000E+00  0.00000000E+00  0.00000000E+00
  0.00000000E+00  0.00000000E+00  0.00000000E+00
  0.00000000E+00  0.00000000E+00  0.00000000E+00
  0.00000000E+00  0.00000000E+00  0.00000000E+00
  0.00000000E+00  0.00000000E+00  0.00000000E+00
  0.00000000E+00  0.00000000E+00  0.00000000E+00
  0.00000000E+00  0.00000000E+00  0.00000000E+00
  0.00000000E+00  0.00000000E+00  0.00000000E+00
  0.00000000E+00  0.00000000E+00  0.00000000E+00
  0.00000000E+00  0.00000000E+00  0.00000000E+00
  0.00000000E+00  0.00000000E+00  0.00000000E+00
  0.00000000E+00  0.00000000E+00  0.00000000E+00
  0.00000000E+00  0.00000000E+00  0.00000000E+00
  0.00000000E+00  0.00000000E+00  0.00000000E+00
  0.00000000E+00  0.00000000E+00  0.00000000E+00
  0.00000000E+00  0.00000000E+00  0.00000000E+00
  0.00000000E+00  0.00000000E+00  0.00000000E+00
  0.00000000E+00  0.00000000E+00  0.00000000E+00
  0.00000000E+00  0.00000000E+00  0.00000000E+00
  0.00000000E+00  0.00000000E+00  0.00000000E+00
  0.00000000E+00  0.00000000E+00  0.00000000E+00
  0.00000000E+00  0.00000000E+00  0.00000000E+00
  0.00000000E+00  0.00000000E+00  0.00000000E+00
  0.00000000E+00  0.00000000E+00  0.00000000E+00
  0.00000000E+00  0.00000000E+00  0.00000000E+00
  0.00000000E+00  0.00000000E+00  0.00000000E+00
  0.00000000E+00  0.00000000E+00  0.00000000E+00
  0.00000000E+00  0.00000000E+00  0.00000000E+00
  0.00000000E+00  0.00000000E+00  0.00000000E+00
  0.00000000E+00  0.00000000E+00  0.00000000E+00
  0.00000000E+00  0.00000000E+00  0.00000000E+00
  0.00000000E+00  0.00000000E+00  0.00000000E+00
