PREC=accurate
ENCUT=400
NSW=150
IBRION=2

NELMIN=5
EDIFF=1E-5
POTIM=0.5

#ISIF=3
ISMEAR=0
SIGMA=0.1
#ADDGRID=T
LWAVE=F
LCHARG=F
LREAL=F
LASPH=T
LORBIT=10

NCORE=10
IVDW=11

#Dipole correction 
 IDIPOL=3
 LDIPOL = T
# DIPOL = 0.0 0.0 0.0

# Work function 
# IDIPOL=3 
# LDIPOL= .TRUE. 
# LVTOT = .TRUE.

