test                                    
   1.00000000000000     
     5.0196948051000003    0.0000000000000000    0.0000000000000000
     2.5098474026000002    4.3471832204999998    0.0000000000000000
     0.0000000000000000    0.0000000000000000   26.2074222564999992
   Cu   C 
    16     1
Selective dynamics
Direct
  0.0000000000000000  0.0000000000000000  0.0000000000000000   F   F   F
  0.0000000000000000  0.5000000000000000  0.0000000000000000   F   F   F
  0.5000000000000000  0.0000000000000000  0.0000000000000000   F   F   F
  0.5000000000000000  0.5000000000000000  0.0000000000000000   F   F   F
  0.1666666719999981  0.1666666719999981  0.0781947079999981   F   F   F
  0.1666666719999981  0.6666666870000029  0.0781947079999981   F   F   F
  0.6666666870000029  0.1666666719999981  0.0781947079999981   F   F   F
  0.6666666870000029  0.6666666870000029  0.0781947079999981   F   F   F
  0.3331055478752410  0.3342465122462486  0.1568578101900528   T   T   T
  0.3331055478752410  0.8326479988785046  0.1568578101900528   T   T   T
  0.8315244566877413  0.3342378011561264  0.1568504058251091   T   T   T
  0.8325442374498521  0.8337279407750736  0.1567235576359076   T   T   T
  0.9944614068193688 -0.0036694767506652  0.2366676387433397   T   T   T
  0.9944614068193688  0.5092080699312963  0.2366676387433397   T   T   T
  0.5078108659041729  0.9960945670479135  0.2366523996306247   T   T   T
  0.4984196037402524  0.5007901981298738  0.2386821837795891   T   T   T
  0.1656485917971336  0.1671757121014303  0.2781925975278223   T   T   T
 
  0.00000000E+00  0.00000000E+00  0.00000000E+00
  0.00000000E+00  0.00000000E+00  0.00000000E+00
  0.00000000E+00  0.00000000E+00  0.00000000E+00
  0.00000000E+00  0.00000000E+00  0.00000000E+00
  0.00000000E+00  0.00000000E+00  0.00000000E+00
  0.00000000E+00  0.00000000E+00  0.00000000E+00
  0.00000000E+00  0.00000000E+00  0.00000000E+00
  0.00000000E+00  0.00000000E+00  0.00000000E+00
  0.00000000E+00  0.00000000E+00  0.00000000E+00
  0.00000000E+00  0.00000000E+00  0.00000000E+00
  0.00000000E+00  0.00000000E+00  0.00000000E+00
  0.00000000E+00  0.00000000E+00  0.00000000E+00
  0.00000000E+00  0.00000000E+00  0.00000000E+00
  0.00000000E+00  0.00000000E+00  0.00000000E+00
  0.00000000E+00  0.00000000E+00  0.00000000E+00
  0.00000000E+00  0.00000000E+00  0.00000000E+00
  0.00000000E+00  0.00000000E+00  0.00000000E+00
