test                                    
   1.00000000000000     
     7.5295418705090338    0.0000000000000000    0.0000000000000000
     3.7647709352545169    6.5207745387194223    0.0000000000000000
     0.0000000000000000    0.0000000000000000   26.2074228060000003
   Cu   C 
    36     2
Selective dynamics
Direct
  0.0000000000000000  0.0000000000000000  0.0000000000000000   F   F   F
  0.0000000000000000  0.3333333333333357  0.0000000000000000   F   F   F
  0.0000000000000000  0.6666666666666643  0.0000000000000000   F   F   F
  0.3333333333333357  0.0000000000000000  0.0000000000000000   F   F   F
  0.3333333333333357  0.3333333333333357  0.0000000000000000   F   F   F
  0.3333333333333357  0.6666666666666643  0.0000000000000000   F   F   F
  0.6666666666666643  0.0000000000000000  0.0000000000000000   F   F   F
  0.6666666666666643  0.3333333333333357  0.0000000000000000   F   F   F
  0.6666666666666643  0.6666666666666643  0.0000000000000000   F   F   F
  0.1111111111111143  0.1111111111111143  0.0781947063717041   F   F   F
  0.1111111111111143  0.4444444444444429  0.0781947063717041   F   F   F
  0.1111111111111143  0.7777777777777786  0.0781947063717041   F   F   F
  0.4444444444444429  0.1111111111111143  0.0781947063717041   F   F   F
  0.4444444444444429  0.4444444444444429  0.0781947063717041   F   F   F
  0.4444444444444429  0.7777777777777786  0.0781947063717041   F   F   F
  0.7777777777777786  0.1111111111111143  0.0781947063717041   F   F   F
  0.7777777777777786  0.4444444444444429  0.0781947063717041   F   F   F
  0.7777777777777786  0.7777777777777786  0.0781947063717041   F   F   F
  0.2236269158032810  0.2236269158032811  0.1565495190780789   T   T   T
  0.2238205030430376  0.5536915075534007  0.1578055317390103   T   T   T
  0.2215218686201000  0.8909441358386434  0.1566386363365764   T   T   T
  0.5536915075534006  0.2238205030430376  0.1578055317390103   T   T   T
  0.5561427701738698  0.5561427701738698  0.1560716050227998   T   T   T
  0.5563359093853063  0.8906322054776452  0.1554867338117376   T   T   T
  0.8909441358386434  0.2215218686201000  0.1566386363365764   T   T   T
  0.8906322054776452  0.5563359093853063  0.1554867338117376   T   T   T
  0.8926138383258769  0.8926138383258769  0.1577023505602095   T   T   T
  0.0011030795883816  0.0011030795883816  0.2441074028997334   T   T   T
  0.9883571902359868  0.3504066442182850  0.2336372284660685   T   T   T
  0.0005608302910008  0.6731502543466168  0.2349133751893069   T   T   T
  0.3504066442182850  0.9883571902359867  0.2336372284660685   T   T   T
  0.3354766358773153  0.3354766358773153  0.2443031168734507   T   T   T
  0.3365518488853142  0.6644267902453838  0.2348078524756592   T   T   T
  0.6731502543466168  0.0005608302910008  0.2349133751893069   T   T   T
  0.6644267902453838  0.3365518488853142  0.2348078524756592   T   T   T
  0.6684344047042955  0.6684344047042954  0.2332419480071027   T   T   T
  0.1186109011181302  0.1186109010598871  0.2894668037701469   T   T   T
  0.2182567710267654  0.2182567710267654  0.2901300775158073   T   T   T
 
  0.00000000E+00  0.00000000E+00  0.00000000E+00
  0.00000000E+00  0.00000000E+00  0.00000000E+00
  0.00000000E+00  0.00000000E+00  0.00000000E+00
  0.00000000E+00  0.00000000E+00  0.00000000E+00
  0.00000000E+00  0.00000000E+00  0.00000000E+00
  0.00000000E+00  0.00000000E+00  0.00000000E+00
  0.00000000E+00  0.00000000E+00  0.00000000E+00
  0.00000000E+00  0.00000000E+00  0.00000000E+00
  0.00000000E+00  0.00000000E+00  0.00000000E+00
  0.00000000E+00  0.00000000E+00  0.00000000E+00
  0.00000000E+00  0.00000000E+00  0.00000000E+00
  0.00000000E+00  0.00000000E+00  0.00000000E+00
  0.00000000E+00  0.00000000E+00  0.00000000E+00
  0.00000000E+00  0.00000000E+00  0.00000000E+00
  0.00000000E+00  0.00000000E+00  0.00000000E+00
  0.00000000E+00  0.00000000E+00  0.00000000E+00
  0.00000000E+00  0.00000000E+00  0.00000000E+00
  0.00000000E+00  0.00000000E+00  0.00000000E+00
  0.00000000E+00  0.00000000E+00  0.00000000E+00
  0.00000000E+00  0.00000000E+00  0.00000000E+00
  0.00000000E+00  0.00000000E+00  0.00000000E+00
  0.00000000E+00  0.00000000E+00  0.00000000E+00
  0.00000000E+00  0.00000000E+00  0.00000000E+00
  0.00000000E+00  0.00000000E+00  0.00000000E+00
  0.00000000E+00  0.00000000E+00  0.00000000E+00
  0.00000000E+00  0.00000000E+00  0.00000000E+00
  0.00000000E+00  0.00000000E+00  0.00000000E+00
  0.00000000E+00  0.00000000E+00  0.00000000E+00
  0.00000000E+00  0.00000000E+00  0.00000000E+00
  0.00000000E+00  0.00000000E+00  0.00000000E+00
  0.00000000E+00  0.00000000E+00  0.00000000E+00
  0.00000000E+00  0.00000000E+00  0.00000000E+00
  0.00000000E+00  0.00000000E+00  0.00000000E+00
  0.00000000E+00  0.00000000E+00  0.00000000E+00
  0.00000000E+00  0.00000000E+00  0.00000000E+00
  0.00000000E+00  0.00000000E+00  0.00000000E+00
  0.00000000E+00  0.00000000E+00  0.00000000E+00
  0.00000000E+00  0.00000000E+00  0.00000000E+00
