test                                    
   1.00000000000000     
     8.6943660516258969    0.0000000000000000    0.0000000000000000
    10.8679575645323716    7.2089874958117113    0.0000000000000000
     0.0000000000000000    0.0000000000000000   26.4212148820000010
   Cu   C 
    42     1
Selective dynamics
Direct
  0.3181000000000012  0.2120666666666651  0.0000000000000000   F   F   F
  0.3181000000000012  0.5454000000000008  0.0000000000000000   F   F   F
  0.3181000000000012  0.8787333333333365  0.0000000000000000   F   F   F
  0.8181000000000012  0.2120666666666651  0.0000000000000000   F   F   F
  0.8181000000000012  0.5454000000000008  0.0000000000000000   F   F   F
  0.8181000000000012  0.8787333333333365  0.0000000000000000   F   F   F
  0.4544500000000014  0.3029666666666699  0.0405054228276143   F   F   F
  0.4544500000000014  0.6362999999999985  0.0405054228276143   F   F   F
  0.4544500000000014  0.9696333333333342  0.0405054228276143   F   F   F
  0.9544500000000014  0.3029666666666699  0.0405054228276143   F   F   F
  0.9544500000000014  0.6362999999999985  0.0405054228276143   F   F   F
  0.9544500000000014  0.9696333333333342  0.0405054228276143   F   F   F
  0.0908000000000015  0.0605333333333320  0.0810108456552356   F   F   F
  0.0908000000000015  0.3938666666666677  0.0810108456552356   F   F   F
  0.0908000000000015  0.7272000000000034  0.0810108456552356   F   F   F
  0.5908000000000015  0.0605333333333320  0.0810108456552356   F   F   F
  0.5908000000000015  0.3938666666666677  0.0810108456552356   F   F   F
  0.5908000000000015  0.7272000000000034  0.0810108456552356   F   F   F
  0.2251956335317173  0.1511825969207982  0.1227846475360973   T   T   T
  0.2239953114393685  0.4849591882663996  0.1235716233137494   T   T   T
  0.2249252863155434  0.8177310564610273  0.1238320584816070   T   T   T
  0.7251127686128191  0.1517542756635569  0.1234807273921985   T   T   T
  0.7239970687022415  0.4850303537343912  0.1232346433035727   T   T   T
  0.7247604557517229  0.8183918626439456  0.1239033082328558   T   T   T
  0.3585474888240449  0.2415610278195182  0.1633383209907258   T   T   T
  0.3581432882713393  0.5743787322308878  0.1641619969929260   T   T   T
  0.3589676838681518  0.9083471132338163  0.1636605928189118   T   T   T
  0.8606107191100211  0.2418045677099574  0.1635925942030416   T   T   T
  0.8576409924987574  0.5755106334101109  0.1635387692679251   T   T   T
  0.8567275375446900  0.9109171653220115  0.1640523844109679   T   T   T
 -0.0037776102901212  0.0012556160459629  0.2074725534285185   T   T   T
  0.9996524561868734  0.3308997181504310  0.2067688498514138   T   T   T
  0.9803340472990210  0.6740888098576300  0.2095880634881643   T   T   T
  0.4909455737624256  0.0013210651318836  0.2069600318259805   T   T   T
  0.5009718287369055  0.3258752986454864  0.2088659833506634   T   T   T
  0.4979015251834913  0.6658426421811334  0.2068035172748060   T   T   T
  0.1362983910924400  0.0875748319005695  0.2449296067079929   T   T   T
  0.1235858458292206  0.4241982689180480  0.2444151420733808   T   T   T
  0.1220448214148074  0.7711519151379609  0.2480039654930087   T   T   T
  0.6272846759716761  0.0896719842299511  0.2444935070262977   T   T   T
  0.6546986766572913  0.4149202973233048  0.2475451548101432   T   T   T
  0.6238937292818880  0.7583154301070604  0.2448030706364387   T   T   T
  0.3091710996323035  0.5418581389376316  0.2411905513687524   T   T   T
 
  0.00000000E+00  0.00000000E+00  0.00000000E+00
  0.00000000E+00  0.00000000E+00  0.00000000E+00
  0.00000000E+00  0.00000000E+00  0.00000000E+00
  0.00000000E+00  0.00000000E+00  0.00000000E+00
  0.00000000E+00  0.00000000E+00  0.00000000E+00
  0.00000000E+00  0.00000000E+00  0.00000000E+00
  0.00000000E+00  0.00000000E+00  0.00000000E+00
  0.00000000E+00  0.00000000E+00  0.00000000E+00
  0.00000000E+00  0.00000000E+00  0.00000000E+00
  0.00000000E+00  0.00000000E+00  0.00000000E+00
  0.00000000E+00  0.00000000E+00  0.00000000E+00
  0.00000000E+00  0.00000000E+00  0.00000000E+00
  0.00000000E+00  0.00000000E+00  0.00000000E+00
  0.00000000E+00  0.00000000E+00  0.00000000E+00
  0.00000000E+00  0.00000000E+00  0.00000000E+00
  0.00000000E+00  0.00000000E+00  0.00000000E+00
  0.00000000E+00  0.00000000E+00  0.00000000E+00
  0.00000000E+00  0.00000000E+00  0.00000000E+00
  0.00000000E+00  0.00000000E+00  0.00000000E+00
  0.00000000E+00  0.00000000E+00  0.00000000E+00
  0.00000000E+00  0.00000000E+00  0.00000000E+00
  0.00000000E+00  0.00000000E+00  0.00000000E+00
  0.00000000E+00  0.00000000E+00  0.00000000E+00
  0.00000000E+00  0.00000000E+00  0.00000000E+00
  0.00000000E+00  0.00000000E+00  0.00000000E+00
  0.00000000E+00  0.00000000E+00  0.00000000E+00
  0.00000000E+00  0.00000000E+00  0.00000000E+00
  0.00000000E+00  0.00000000E+00  0.00000000E+00
  0.00000000E+00  0.00000000E+00  0.00000000E+00
  0.00000000E+00  0.00000000E+00  0.00000000E+00
  0.00000000E+00  0.00000000E+00  0.00000000E+00
  0.00000000E+00  0.00000000E+00  0.00000000E+00
  0.00000000E+00  0.00000000E+00  0.00000000E+00
  0.00000000E+00  0.00000000E+00  0.00000000E+00
  0.00000000E+00  0.00000000E+00  0.00000000E+00
  0.00000000E+00  0.00000000E+00  0.00000000E+00
  0.00000000E+00  0.00000000E+00  0.00000000E+00
  0.00000000E+00  0.00000000E+00  0.00000000E+00
  0.00000000E+00  0.00000000E+00  0.00000000E+00
  0.00000000E+00  0.00000000E+00  0.00000000E+00
  0.00000000E+00  0.00000000E+00  0.00000000E+00
  0.00000000E+00  0.00000000E+00  0.00000000E+00
  0.00000000E+00  0.00000000E+00  0.00000000E+00
