test                                    
   1.00000000000000     
     5.0196948051000003    0.0000000000000000    0.0000000000000000
     2.5098474026000002    4.3471832204999998    0.0000000000000000
     0.0000000000000000    0.0000000000000000   26.2074222564999992
   Cu   C 
    16     1
Selective dynamics
Direct
  0.0000000000000000  0.0000000000000000  0.0000000000000000   F   F   F
  0.0000000000000000  0.5000000000000000  0.0000000000000000   F   F   F
  0.5000000000000000  0.0000000000000000  0.0000000000000000   F   F   F
  0.5000000000000000  0.5000000000000000  0.0000000000000000   F   F   F
  0.1666666719999981  0.1666666719999981  0.0781947079999981   F   F   F
  0.1666666719999981  0.6666666870000029  0.0781947079999981   F   F   F
  0.6666666870000029  0.1666666719999981  0.0781947079999981   F   F   F
  0.6666666870000029  0.6666666870000029  0.0781947079999981   F   F   F
  0.3333262097481109  0.3333369096259440  0.1555906519000937   T   T   T
  0.3334798318924067  0.8332601285537984  0.1574402021990498   T   T   T
  0.8329386416089957  0.3333960900950296  0.1573428121670875   T   T   T
  0.8329386416089957  0.8336653572959715  0.1573428121670875   T   T   T
 -0.0009341294418215  0.0004670647209071  0.2391471882656523   T   T   T
  0.9887527565082976  0.5056236217458477  0.2369283871718337   T   T   T
  0.5034744748931378  0.9913642992048248  0.2372872792925950   T   T   T
  0.5034744748931378  0.5051612259020372  0.2372872792925950   T   T   T
  0.3301319750593952  0.3349340269702948  0.2784312802656622   T   T   T
 
  0.00000000E+00  0.00000000E+00  0.00000000E+00
  0.00000000E+00  0.00000000E+00  0.00000000E+00
  0.00000000E+00  0.00000000E+00  0.00000000E+00
  0.00000000E+00  0.00000000E+00  0.00000000E+00
  0.00000000E+00  0.00000000E+00  0.00000000E+00
  0.00000000E+00  0.00000000E+00  0.00000000E+00
  0.00000000E+00  0.00000000E+00  0.00000000E+00
  0.00000000E+00  0.00000000E+00  0.00000000E+00
  0.00000000E+00  0.00000000E+00  0.00000000E+00
  0.00000000E+00  0.00000000E+00  0.00000000E+00
  0.00000000E+00  0.00000000E+00  0.00000000E+00
  0.00000000E+00  0.00000000E+00  0.00000000E+00
  0.00000000E+00  0.00000000E+00  0.00000000E+00
  0.00000000E+00  0.00000000E+00  0.00000000E+00
  0.00000000E+00  0.00000000E+00  0.00000000E+00
  0.00000000E+00  0.00000000E+00  0.00000000E+00
  0.00000000E+00  0.00000000E+00  0.00000000E+00
