test                                    
   1.00000000000000     
     5.0196948051000003    0.0000000000000000    0.0000000000000000
     2.5098474026000002    4.3471832204999998    0.0000000000000000
     0.0000000000000000    0.0000000000000000   26.2074222564999992
   Cu   C 
    16     1
Selective dynamics
Direct
  0.0000000000000000  0.0000000000000000  0.0000000000000000   F   F   F
  0.0000000000000000  0.5000000000000000  0.0000000000000000   F   F   F
  0.5000000000000000  0.0000000000000000  0.0000000000000000   F   F   F
  0.5000000000000000  0.5000000000000000  0.0000000000000000   F   F   F
  0.1666666719999981  0.1666666719999981  0.0781947079999981   F   F   F
  0.1666666719999981  0.6666666870000029  0.0781947079999981   F   F   F
  0.6666666870000029  0.1666666719999981  0.0781947079999981   F   F   F
  0.6666666870000029  0.6666666870000029  0.0781947079999981   F   F   F
  0.3336186019874854  0.3331907135062532  0.1570389841666408   T   T   T
  0.3336186019874854  0.8331907435062560  0.1570389841666408   T   T   T
  0.8321897224692575  0.3339051682653684  0.1570357754777844   T   T   T
  0.8321897224692575  0.8339051982653707  0.1570357754777844   T   T   T
  0.9934709575709990  0.0032645212145005  0.2377603605563381   T   T   T
  0.9934709575709990  0.5032645212145004  0.2377603605563381   T   T   T
  0.5108214404279454  0.9945892797860273  0.2388697923946800   T   T   T
  0.5108214404279454  0.4945892797860273  0.2388697923946800   T   T   T
  0.3168180103406061  0.3415910093296929  0.2849158812957983   T   T   T
