test                                    
   1.00000000000000     
     5.0196948051000003    0.0000000000000000    0.0000000000000000
     2.5098474026000002    4.3471832204999998    0.0000000000000000
     0.0000000000000000    0.0000000000000000   26.2074222564999992
   Cu   C 
    16     1
Selective dynamics
Direct
  0.0000000000000000  0.0000000000000000  0.0000000000000000   F   F   F
  0.0000000000000000  0.5000000000000000  0.0000000000000000   F   F   F
  0.5000000000000000  0.0000000000000000  0.0000000000000000   F   F   F
  0.5000000000000000  0.5000000000000000  0.0000000000000000   F   F   F
  0.1666666719999981  0.1666666719999981  0.0781947079999981   F   F   F
  0.1666666719999981  0.6666666870000029  0.0781947079999981   F   F   F
  0.6666666870000029  0.1666666719999981  0.0781947079999981   F   F   F
  0.6666666870000029  0.6666666870000029  0.0781947079999981   F   F   F
  0.3315019480283349  0.3342490404858320  0.1572854828861840   T   T   T
  0.3315019480283349  0.8342490704858345  0.1572854828861840   T   T   T
  0.8318259523262487  0.3340870533368763  0.1570266875862196   T   T   T
  0.8318259523262487  0.8340870833368788  0.1570266875862196   T   T   T
 -0.0150509972311680  0.0075254986155840  0.2392840628357945   T   T   T
 -0.0150509972311680  0.5075254986155840  0.2392840628357945   T   T   T
  0.5038331121956250 -0.0019165560978125  0.2374507225875045   T   T   T
  0.5038331121956250  0.4980834439021875  0.2374507225875045   T   T   T
  0.1834991316718013  0.1582504421640964  0.2846196950797205   T   T   T
