test                                    
   1.00000000000000     
     7.5295418705090338    0.0000000000000000    0.0000000000000000
     3.7647709352545169    6.5207745387194223    0.0000000000000000
     0.0000000000000000    0.0000000000000000   26.2074228060000003
   Cu   C 
    36     2
Selective dynamics
Direct
  0.0000000000000000  0.0000000000000000  0.0000000000000000   F   F   F
  0.0000000000000000  0.3333333333333357  0.0000000000000000   F   F   F
  0.0000000000000000  0.6666666666666643  0.0000000000000000   F   F   F
  0.3333333333333357  0.0000000000000000  0.0000000000000000   F   F   F
  0.3333333333333357  0.3333333333333357  0.0000000000000000   F   F   F
  0.3333333333333357  0.6666666666666643  0.0000000000000000   F   F   F
  0.6666666666666643  0.0000000000000000  0.0000000000000000   F   F   F
  0.6666666666666643  0.3333333333333357  0.0000000000000000   F   F   F
  0.6666666666666643  0.6666666666666643  0.0000000000000000   F   F   F
  0.1111111111111143  0.1111111111111143  0.0781947063717041   F   F   F
  0.1111111111111143  0.4444444444444429  0.0781947063717041   F   F   F
  0.1111111111111143  0.7777777777777786  0.0781947063717041   F   F   F
  0.4444444444444429  0.1111111111111143  0.0781947063717041   F   F   F
  0.4444444444444429  0.4444444444444429  0.0781947063717041   F   F   F
  0.4444444444444429  0.7777777777777786  0.0781947063717041   F   F   F
  0.7777777777777786  0.1111111111111143  0.0781947063717041   F   F   F
  0.7777777777777786  0.4444444444444429  0.0781947063717041   F   F   F
  0.7777777777777786  0.7777777777777786  0.0781947063717041   F   F   F
  0.2246969905878707  0.2229871189483932  0.1575913941672576   T   T   T
  0.2181890000156206  0.5629647046507605  0.1563523105561328   T   T   T
  0.2168638233712039  0.8959709779018759  0.1576512631694899   T   T   T
  0.5540771504231902  0.2253771082478507  0.1561326042622057   T   T   T
  0.5494070966538422  0.5586119661296961  0.1591638556923214   T   T   T
  0.5486648721999547  0.8882258353721181  0.1555829459239125   T   T   T
  0.8854586931057467  0.2258910633503486  0.1581086802443530   T   T   T
  0.8883579919524729  0.5517698955310537  0.1582849215362126   T   T   T
  0.8847682238733527  0.8891047012184332  0.1547727484979984   T   T   T
 -0.0314597092742719  0.0007082071326595  0.2370101436531966   T   T   T
  0.0291167693704483  0.2936610322302509  0.2403843974250771   T   T   T
 -0.0059102435589995  0.6625031789801002  0.2350011454980019   T   T   T
  0.3856902179189758  0.0642218647289811  0.2859051084247605   T   T   T
  0.3202753833332920  0.3663231681530632  0.2350305473324071   T   T   T
  0.3238455494506902  0.7105808368686374  0.2424361095016973   T   T   T
  0.6660330534526034 -0.0163309965239405  0.2306332443035920   T   T   T
  0.6545114113619285  0.3427237173367859  0.2428710396549075   T   T   T
  0.6739979996428219  0.6560709053906399  0.2361820171818305   T   T   T
  0.1963530067498588 -0.0030718215748021  0.2629119993115681   T   T   T
  0.5449756025771559  0.1975027303528367  0.2786109018566145   T   T   T
 
  0.00000000E+00  0.00000000E+00  0.00000000E+00
  0.00000000E+00  0.00000000E+00  0.00000000E+00
  0.00000000E+00  0.00000000E+00  0.00000000E+00
  0.00000000E+00  0.00000000E+00  0.00000000E+00
  0.00000000E+00  0.00000000E+00  0.00000000E+00
  0.00000000E+00  0.00000000E+00  0.00000000E+00
  0.00000000E+00  0.00000000E+00  0.00000000E+00
  0.00000000E+00  0.00000000E+00  0.00000000E+00
  0.00000000E+00  0.00000000E+00  0.00000000E+00
  0.00000000E+00  0.00000000E+00  0.00000000E+00
  0.00000000E+00  0.00000000E+00  0.00000000E+00
  0.00000000E+00  0.00000000E+00  0.00000000E+00
  0.00000000E+00  0.00000000E+00  0.00000000E+00
  0.00000000E+00  0.00000000E+00  0.00000000E+00
  0.00000000E+00  0.00000000E+00  0.00000000E+00
  0.00000000E+00  0.00000000E+00  0.00000000E+00
  0.00000000E+00  0.00000000E+00  0.00000000E+00
  0.00000000E+00  0.00000000E+00  0.00000000E+00
  0.00000000E+00  0.00000000E+00  0.00000000E+00
  0.00000000E+00  0.00000000E+00  0.00000000E+00
  0.00000000E+00  0.00000000E+00  0.00000000E+00
  0.00000000E+00  0.00000000E+00  0.00000000E+00
  0.00000000E+00  0.00000000E+00  0.00000000E+00
  0.00000000E+00  0.00000000E+00  0.00000000E+00
  0.00000000E+00  0.00000000E+00  0.00000000E+00
  0.00000000E+00  0.00000000E+00  0.00000000E+00
  0.00000000E+00  0.00000000E+00  0.00000000E+00
  0.00000000E+00  0.00000000E+00  0.00000000E+00
  0.00000000E+00  0.00000000E+00  0.00000000E+00
  0.00000000E+00  0.00000000E+00  0.00000000E+00
  0.00000000E+00  0.00000000E+00  0.00000000E+00
  0.00000000E+00  0.00000000E+00  0.00000000E+00
  0.00000000E+00  0.00000000E+00  0.00000000E+00
  0.00000000E+00  0.00000000E+00  0.00000000E+00
  0.00000000E+00  0.00000000E+00  0.00000000E+00
  0.00000000E+00  0.00000000E+00  0.00000000E+00
  0.00000000E+00  0.00000000E+00  0.00000000E+00
  0.00000000E+00  0.00000000E+00  0.00000000E+00
