Zr2 O4                                  
   1.00000000000000     
     3.6218528250576809    0.0000000000000000    0.0000000000000000
     0.0000000000000000    3.6218528250576809    0.0000000000000000
     0.0000000000000000    0.0000000000000000    5.2808772311456273
   Zr   O 
     2     4
Direct
  0.5000000000000000  0.5000000000000000  0.5000000000000000
  0.0000000000000000  0.0000000000000000  0.0000000000000000
  0.5000000000000000  0.0000000000000000  0.8064905034826850
  0.5000000000000000  0.0000000000000000  0.3064905034826850
  0.0000000000000000  0.5000000000000000  0.1935094965173150
  0.0000000000000000  0.5000000000000000  0.6935094965173150
 
  0.00000000E+00  0.00000000E+00  0.00000000E+00
  0.00000000E+00  0.00000000E+00  0.00000000E+00
  0.00000000E+00  0.00000000E+00  0.00000000E+00
  0.00000000E+00  0.00000000E+00  0.00000000E+00
  0.00000000E+00  0.00000000E+00  0.00000000E+00
  0.00000000E+00  0.00000000E+00  0.00000000E+00
