test                                    
   1.00000000000000     
     7.5295418705090338    0.0000000000000000    0.0000000000000000
     3.7647709352545169    6.5207745387194223    0.0000000000000000
     0.0000000000000000    0.0000000000000000   26.2074228060000003
   Cu   C 
    36     2
Selective dynamics
Direct
  0.0000000000000000  0.0000000000000000  0.0000000000000000   F   F   F
  0.0000000000000000  0.3333333333333357  0.0000000000000000   F   F   F
  0.0000000000000000  0.6666666666666643  0.0000000000000000   F   F   F
  0.3333333333333357  0.0000000000000000  0.0000000000000000   F   F   F
  0.3333333333333357  0.3333333333333357  0.0000000000000000   F   F   F
  0.3333333333333357  0.6666666666666643  0.0000000000000000   F   F   F
  0.6666666666666643  0.0000000000000000  0.0000000000000000   F   F   F
  0.6666666666666643  0.3333333333333357  0.0000000000000000   F   F   F
  0.6666666666666643  0.6666666666666643  0.0000000000000000   F   F   F
  0.1111111111111143  0.1111111111111143  0.0781947063717041   F   F   F
  0.1111111111111143  0.4444444444444429  0.0781947063717041   F   F   F
  0.1111111111111143  0.7777777777777786  0.0781947063717041   F   F   F
  0.4444444444444429  0.1111111111111143  0.0781947063717041   F   F   F
  0.4444444444444429  0.4444444444444429  0.0781947063717041   F   F   F
  0.4444444444444429  0.7777777777777786  0.0781947063717041   F   F   F
  0.7777777777777786  0.1111111111111143  0.0781947063717041   F   F   F
  0.7777777777777786  0.4444444444444429  0.0781947063717041   F   F   F
  0.7777777777777786  0.7777777777777786  0.0781947063717041   F   F   F
  0.2181399703807489  0.2227971236126422  0.1570038470026075   T   T   T
  0.2193080186740826  0.5570126573296228  0.1607677744310973   T   T   T
  0.2181399703807489  0.8923962393399376  0.1570038470026075   T   T   T
  0.5495755712599741  0.2254682117532080  0.1557904551044530   T   T   T
  0.5495755712599741  0.5582895503201464  0.1557904551044530   T   T   T
  0.5481396248885521  0.8925968542223854  0.1571262356962646   T   T   T
  0.8852869374648472  0.2240231979342408  0.1564973380229505   T   T   T
  0.8874453571871246  0.5568965850300232  0.1566236623283847   T   T   T
  0.8874453571871246  0.8889913911161732  0.1566236623283847   T   T   T
 -0.0045954899667884  0.0070919843234589  0.2381632852691110   T   T   T
 -0.0045954899667884  0.3308368389766648  0.2381632852691110   T   T   T
 -0.0015080034828195  0.6674206684080781  0.2419765964395752   T   T   T
  0.4519435439720288  0.9406948946806534  0.2856058178020686   T   T   T
  0.3267405996120912  0.3168961257310816  0.2380534724751515   T   T   T
  0.3267405996120912  0.6896966079901632  0.2380534724751515   T   T   T
  0.6717242833633156  0.0120875540976752  0.2328851301379473   T   T   T
  0.6466726421550801  0.3433303455891278  0.2343109085625000   T   T   T
  0.6717242833633156  0.6495214958723442  0.2328851301379473   T   T   T
  0.1835406306255355  0.0748963513135128  0.2655418276828567   T   T   T
  0.7461887090407239  0.7935723121463024  0.2791751880339314   T   T   T
 
  0.00000000E+00  0.00000000E+00  0.00000000E+00
  0.00000000E+00  0.00000000E+00  0.00000000E+00
  0.00000000E+00  0.00000000E+00  0.00000000E+00
  0.00000000E+00  0.00000000E+00  0.00000000E+00
  0.00000000E+00  0.00000000E+00  0.00000000E+00
  0.00000000E+00  0.00000000E+00  0.00000000E+00
  0.00000000E+00  0.00000000E+00  0.00000000E+00
  0.00000000E+00  0.00000000E+00  0.00000000E+00
  0.00000000E+00  0.00000000E+00  0.00000000E+00
  0.00000000E+00  0.00000000E+00  0.00000000E+00
  0.00000000E+00  0.00000000E+00  0.00000000E+00
  0.00000000E+00  0.00000000E+00  0.00000000E+00
  0.00000000E+00  0.00000000E+00  0.00000000E+00
  0.00000000E+00  0.00000000E+00  0.00000000E+00
  0.00000000E+00  0.00000000E+00  0.00000000E+00
  0.00000000E+00  0.00000000E+00  0.00000000E+00
  0.00000000E+00  0.00000000E+00  0.00000000E+00
  0.00000000E+00  0.00000000E+00  0.00000000E+00
  0.00000000E+00  0.00000000E+00  0.00000000E+00
  0.00000000E+00  0.00000000E+00  0.00000000E+00
  0.00000000E+00  0.00000000E+00  0.00000000E+00
  0.00000000E+00  0.00000000E+00  0.00000000E+00
  0.00000000E+00  0.00000000E+00  0.00000000E+00
  0.00000000E+00  0.00000000E+00  0.00000000E+00
  0.00000000E+00  0.00000000E+00  0.00000000E+00
  0.00000000E+00  0.00000000E+00  0.00000000E+00
  0.00000000E+00  0.00000000E+00  0.00000000E+00
  0.00000000E+00  0.00000000E+00  0.00000000E+00
  0.00000000E+00  0.00000000E+00  0.00000000E+00
  0.00000000E+00  0.00000000E+00  0.00000000E+00
  0.00000000E+00  0.00000000E+00  0.00000000E+00
  0.00000000E+00  0.00000000E+00  0.00000000E+00
  0.00000000E+00  0.00000000E+00  0.00000000E+00
  0.00000000E+00  0.00000000E+00  0.00000000E+00
  0.00000000E+00  0.00000000E+00  0.00000000E+00
  0.00000000E+00  0.00000000E+00  0.00000000E+00
  0.00000000E+00  0.00000000E+00  0.00000000E+00
  0.00000000E+00  0.00000000E+00  0.00000000E+00
