test
  1.0000000000000000
     7.5295418705090338    0.0000000000000000    0.0000000000000000 
     3.7647709352545169    6.5207745387194223    0.0000000000000000 
     0.0000000000000000    0.0000000000000000   26.2074228060000003 
   Cu    C
   36    2
Selective Dynamics
C
     0.0000000000000000    0.0000000000000000    0.0000000000000000     F     F     F 
     1.2549236450848478    2.1735915129064893    0.0000000000000000     F     F     F 
     2.5098472901696689    4.3471830258129325    0.0000000000000000     F     F     F 
     2.5098472901696955    0.0000000000000000    0.0000000000000000     F     F     F 
     3.7647709352545435    2.1735915129064893    0.0000000000000000     F     F     F 
     5.0196945803393644    4.3471830258129325    0.0000000000000000     F     F     F 
     5.0196945803393378    0.0000000000000000    0.0000000000000000     F     F     F 
     6.2746182254241853    2.1735915129064893    0.0000000000000000     F     F     F 
     7.5295418705090071    4.3471830258129325    0.0000000000000000     F     F     F 
     1.2549236450848749    0.7245305043021788    2.0492817310742715     F     F     F 
     2.5098472901696960    2.8981220172086224    2.0492817310742715     F     F     F 
     3.7647709352545440    5.0717135301151117    2.0492817310742715     F     F     F 
     3.7647709352545173    0.7245305043021788    2.0492817310742715     F     F     F 
     5.0196945803393387    2.8981220172086224    2.0492817310742715     F     F     F 
     6.2746182254241862    5.0717135301151117    2.0492817310742715     F     F     F 
     6.2746182254242129    0.7245305043021788    2.0492817310742715     F     F     F 
     7.5295418705090338    2.8981220172086224    2.0492817310742715     F     F     F 
     8.7844655155938813    5.0717135301151117    2.0492817310742715     F     F     F 
     2.5024438176153780    1.4447866117321528    4.1140892011271788     T     T     T 
     3.7646102228173799    3.6227453088796433    4.1050540413369792     T     T     T 
     5.0196945803393387    5.8047928281615615    4.1140892011271788     T     T     T 
     5.0196945803393644    1.4488754338666248    4.1050540413369792     T     T     T 
     6.2747789378613490    3.6227453088796433    4.1050540413369792     T     T     T 
     7.5263245482998498    5.7981015562607849    4.0990206033757559     T     T     T 
     7.5369453430632998    1.4447866117321528    4.1140892011271788     T     T     T 
     8.7844655155938547    3.6189374778237160    4.0990206033757559     T     T     T 
    10.0426064828878587    5.7981015562607849    4.0990206033757559     T     T     T 
    -0.0565704596468359   -0.0326609701052815    6.2424051069730178     T     T     T 
     1.2549236450848480    2.2389134531170529    6.2424051069730178     T     T     T 
     2.5054899560307820    4.3496987338509667    6.1561066410462342     T     T     T 
     2.5664177498165319   -0.0326609701052815    6.2424051069730178     T     T     T 
     3.7759976742732677    2.1800732737010717    6.1850399151642259     T     T     T 
     5.0196945803393653    4.3342195042237694    6.1850399151642259     T     T     T 
     5.0196945803393369   -0.0050314160760704    6.1561066410462342     T     T     T 
     6.2633914864054629    2.1800732737010717    6.1850399151642259     T     T     T 
     7.5338992046478914    4.3496987338509667    6.1561066410462342     T     T     T 
     1.2549236450000230    0.7245305039999957    7.3038816088683971     T     T     T 
     4.3944114248663562   -1.0880536104722629    8.5602590600094608     T     T     T 
