test                                    
   1.00000000000000     
     7.5295418705090338    0.0000000000000000    0.0000000000000000
     3.7647709352545169    6.5207745387194223    0.0000000000000000
     0.0000000000000000    0.0000000000000000   26.2074228060000003
   Cu   C 
    36     2
Selective dynamics
Direct
  0.0000000000000000  0.0000000000000000  0.0000000000000000   F   F   F
  0.0000000000000000  0.3333333333333357  0.0000000000000000   F   F   F
  0.0000000000000000  0.6666666666666643  0.0000000000000000   F   F   F
  0.3333333333333357  0.0000000000000000  0.0000000000000000   F   F   F
  0.3333333333333357  0.3333333333333357  0.0000000000000000   F   F   F
  0.3333333333333357  0.6666666666666643  0.0000000000000000   F   F   F
  0.6666666666666643  0.0000000000000000  0.0000000000000000   F   F   F
  0.6666666666666643  0.3333333333333357  0.0000000000000000   F   F   F
  0.6666666666666643  0.6666666666666643  0.0000000000000000   F   F   F
  0.1111111111111143  0.1111111111111143  0.0781947063717041   F   F   F
  0.1111111111111143  0.4444444444444429  0.0781947063717041   F   F   F
  0.1111111111111143  0.7777777777777786  0.0781947063717041   F   F   F
  0.4444444444444429  0.1111111111111143  0.0781947063717041   F   F   F
  0.4444444444444429  0.4444444444444429  0.0781947063717041   F   F   F
  0.4444444444444429  0.7777777777777786  0.0781947063717041   F   F   F
  0.7777777777777786  0.1111111111111143  0.0781947063717041   F   F   F
  0.7777777777777786  0.4444444444444429  0.0781947063717041   F   F   F
  0.7777777777777786  0.7777777777777786  0.0781947063717041   F   F   F
  0.2191413729723296  0.2219506642581572  0.1566063153547349   T   T   T
  0.2215277981201515  0.5564155020863391  0.1578661605434208   T   T   T
  0.2215037906493210  0.8865560454603594  0.1565833911634248   T   T   T
  0.5540347157564181  0.2216926829593349  0.1560981661276737   T   T   T
  0.5514678049792257  0.5562680833298491  0.1577418475027891   T   T   T
  0.5540482935874999  0.8871582863709819  0.1555137975392872   T   T   T
  0.8885827141214599  0.2218853597488849  0.1567036152810936   T   T   T
  0.8900446816575830  0.5489789382104776  0.1577885434329637   T   T   T
  0.8883903451187073  0.8870295433280682  0.1554959110905463   T   T   T
  0.9841562275100068 -0.0034488032048662  0.2336765388582311   T   T   T
 -0.0036606114022833  0.3337059909918268  0.2442914915506791   T   T   T
 -0.0039017181827808  0.6616715831867155  0.2349143345978332   T   T   T
  0.3464242054519928 -0.0031483131797275  0.2335675863860896   T   T   T
  0.3325563253922330  0.3342990921767719  0.2348634511503450   T   T   T
  0.3309466841596956  0.6645061912658585  0.2441723132280014   T   T   T
  0.6644936577915993 -0.0019098900789702  0.2332682103418241   T   T   T
  0.6599442604516793  0.3345035998102293  0.2348642102377739   T   T   T
  0.6684109209397334  0.6619188829953192  0.2348968556101063   T   T   T
  0.1145400977352348  0.0979268649006078  0.2895925642737952   T   T   T
  0.2144450954256066  0.8987558922327120  0.2901042570272878   T   T   T
 
  0.00000000E+00  0.00000000E+00  0.00000000E+00
  0.00000000E+00  0.00000000E+00  0.00000000E+00
  0.00000000E+00  0.00000000E+00  0.00000000E+00
  0.00000000E+00  0.00000000E+00  0.00000000E+00
  0.00000000E+00  0.00000000E+00  0.00000000E+00
  0.00000000E+00  0.00000000E+00  0.00000000E+00
  0.00000000E+00  0.00000000E+00  0.00000000E+00
  0.00000000E+00  0.00000000E+00  0.00000000E+00
  0.00000000E+00  0.00000000E+00  0.00000000E+00
  0.00000000E+00  0.00000000E+00  0.00000000E+00
  0.00000000E+00  0.00000000E+00  0.00000000E+00
  0.00000000E+00  0.00000000E+00  0.00000000E+00
  0.00000000E+00  0.00000000E+00  0.00000000E+00
  0.00000000E+00  0.00000000E+00  0.00000000E+00
  0.00000000E+00  0.00000000E+00  0.00000000E+00
  0.00000000E+00  0.00000000E+00  0.00000000E+00
  0.00000000E+00  0.00000000E+00  0.00000000E+00
  0.00000000E+00  0.00000000E+00  0.00000000E+00
  0.00000000E+00  0.00000000E+00  0.00000000E+00
  0.00000000E+00  0.00000000E+00  0.00000000E+00
  0.00000000E+00  0.00000000E+00  0.00000000E+00
  0.00000000E+00  0.00000000E+00  0.00000000E+00
  0.00000000E+00  0.00000000E+00  0.00000000E+00
  0.00000000E+00  0.00000000E+00  0.00000000E+00
  0.00000000E+00  0.00000000E+00  0.00000000E+00
  0.00000000E+00  0.00000000E+00  0.00000000E+00
  0.00000000E+00  0.00000000E+00  0.00000000E+00
  0.00000000E+00  0.00000000E+00  0.00000000E+00
  0.00000000E+00  0.00000000E+00  0.00000000E+00
  0.00000000E+00  0.00000000E+00  0.00000000E+00
  0.00000000E+00  0.00000000E+00  0.00000000E+00
  0.00000000E+00  0.00000000E+00  0.00000000E+00
  0.00000000E+00  0.00000000E+00  0.00000000E+00
  0.00000000E+00  0.00000000E+00  0.00000000E+00
  0.00000000E+00  0.00000000E+00  0.00000000E+00
  0.00000000E+00  0.00000000E+00  0.00000000E+00
  0.00000000E+00  0.00000000E+00  0.00000000E+00
  0.00000000E+00  0.00000000E+00  0.00000000E+00
